db/data/254216792681728793139694397112965665.z3.out
-------------------
2500.126823109
